solution status: optimal solution found
objective value:                      168331.12468367
d11(0,0)                                            1 	(obj:0)
d11(2,3)                                            1 	(obj:0)
d11(2,4)                                            1 	(obj:0)
d11(2,5)                                            1 	(obj:0)
d11(2,6)                                            1 	(obj:0)
d11(3,9)                                            1 	(obj:0)
d11(3,11)                                           1 	(obj:0)
d11(3,13)                                           1 	(obj:0)
d12(1,2)                                            1 	(obj:0)
d12(3,8)                                            1 	(obj:0)
d12(3,10)                                           1 	(obj:0)
d12(3,12)                                           1 	(obj:0)
d12(3,14)                                           1 	(obj:0)
d21(2,3)                                            1 	(obj:0)
d21(3,7)                                            1 	(obj:0)
d21(3,8)                                            1 	(obj:0)
d21(3,11)                                           1 	(obj:0)
y2(1,2)                              1385.48851144896 	(obj:0)
y2(3,8)                              1385.48851144895 	(obj:0)
y2(3,10)                             1385.48851144895 	(obj:0)
y2(3,12)                             1385.48851144895 	(obj:0)
y2(3,14)                             1385.48851144895 	(obj:0)
STE(1,1)                                        13041 	(obj:0)
STE(0,0)                                        14175 	(obj:0)
STE(1,2)                             14357.2140858765 	(obj:0)
STE(2,3)                             2310.75000111032 	(obj:0)
STE(2,4)                             3968.99989999916 	(obj:0)
STE(2,5)                             3626.96408698683 	(obj:0)
STE(2,6)                             5285.21398587565 	(obj:0)
STE(3,7)                             1176.75000111032 	(obj:0)
STE(3,8)                             2492.96408698682 	(obj:0)
STE(3,9)                             2834.99989999916 	(obj:0)
STE(3,10)                            4151.21398587567 	(obj:0)
STE(3,11)                            2492.96408698683 	(obj:0)
STE(3,12)                            3809.17817286334 	(obj:0)
STE(3,13)                            4151.21398587565 	(obj:0)
STE(3,14)                            5467.42807175215 	(obj:0)
AVE(2)                               3315.65537776224 	(obj:0)
WB(3)                                3315.65799770399 	(obj:0)
y1(2,3)                              8636.62499900071 	(obj:0)
y1(2,4)                              7144.20009000076 	(obj:0)
y1(2,5)                              8636.62499900071 	(obj:0)
y1(2,6)                              7144.20009000078 	(obj:0)
AVE(3)                               3315.65799770399 	(obj:0)
WB(1)                                3248.33172520918 	(obj:0)
WG(2)                                3315.65537776224 	(obj:10)
BG(1)                                2673.40993877551 	(obj:10)
BG(2)                                8170.63721305486 	(obj:10)
BG(3)                                2673.40993877551 	(obj:10)
AVE(1)                               3248.33172520918 	(obj:0)
